c User generated cnf file
p cnf 12 67
3 -4 6 0 
2 -4 1 0 
10 -1 9 0 
9 12 -2 0 
9 -8 4 0 
4 1 -7 0 
6 5 -5 0 
8 -4 5 0 
2 12 -10 0 
9 6 -1 0 
6 -5 11 0 
10 12 -10 0 
1 -4 12 0 
5 2 -3 0 
9 -4 8 0 
5 -2 4 0 
2 -6 3 0 
6 -10 8 0 
8 -7 1 0 
2 4 -1 0 
10 -5 7 0 
2 -5 12 0 
5 1 -9 0 
12 -2 9 0 
9 -1 10 0 
1 2 -10 0 
12 -8 11 0 
7 -11 5 0 
10 -2 3 0 
3 7 -2 0 
5 11 -5 0 
3 -5 9 0 
12 6 -8 0 
6 3 -9 0 
7 7 -7 0 
3 -4 11 0 
7 -10 4 0 
5 10 -5 0 
11 -4 7 0 
2 -1 5 0 
9 1 -8 0 
11 6 -3 0 
11 9 -3 0 
12 3 -1 0 
9 -12 11 0 
12 -6 9 0 
1 7 -4 0 
8 10 -3 0 
11 -2 7 0 
12 3 -11 0 
5 5 -3 0 
12 4 -3 0 
9 -1 7 0 
6 -11 5 0 
12 2 -3 0 
10 9 -3 0 
6 2 -8 0 
11 12 -1 0 
10 2 -9 0 
9 -8 10 0 
6 -2 5 0 
5 -2 7 0 
1 12 -8 0 
5 4 -6 0 
5 -9 8 0 
8 -11 3 0 
8 10 -11 0 
